NAME: berlin52-12-4
TYPE: TSP
COMMENT: min_cost = 3938.91
DIMENSION: 12
EDGE_WEIGHT_TYPE: EUC_2D
NODE_COORD_SECTION
1 1220 580
2 760 650
3 605 625
4 475 960
5 1465 200
6 410 250
7 845 680
8 1530 5
9 650 1130
10 480 415
11 685 610
12 415 635
EOF
